Problem:    Buszv2
Rows:       9
Columns:    5 (5 integer, 5 binary)
Non-zeros:  33
Status:     INTEGER OPTIMAL
Objective:  BusLineCount = 2 (MINimum)

   No.   Row name        Activity     Lower bound   Upper bound
------ ------------    ------------- ------------- -------------
     1 AtLeastOneLineInEachCity[Gyor]
                                   2             1               
     2 AtLeastOneLineInEachCity[Ravazd]
                                   1             1               
     3 AtLeastOneLineInEachCity[Veszpremvarsany]
                                   1             1               
     4 AtLeastOneLineInEachCity[Csesznek]
                                   2             1               
     5 AtLeastOneLineInEachCity[Zirc]
                                   2             1               
     6 AtLeastOneLineInEachCity[Epleny]
                                   1             1               
     7 AtLeastOneLineInEachCity[Veszprem]
                                   2             1               
     8 ZircMustHaveAtLeastTwoLines
                                   2             2               
     9 BusLineCount                2                             

   No. Column name       Activity     Lower bound   Upper bound
------ ------------    ------------- ------------- -------------
     1 LineChosen[line1]
                    *              0             0             1 
     2 LineChosen[line2]
                    *              0             0             1 
     3 LineChosen[line3]
                    *              1             0             1 
     4 LineChosen[line4]
                    *              1             0             1 
     5 LineChosen[line5]
                    *              0             0             1 

Integer feasibility conditions:

KKT.PE: max.abs.err = 0.00e+00 on row 0
        max.rel.err = 0.00e+00 on row 0
        High quality

KKT.PB: max.abs.err = 0.00e+00 on row 0
        max.rel.err = 0.00e+00 on row 0
        High quality

End of output
